param d:     1    2:=
1 19.0 1.526
2 1.0 1.76286
3 1.0 2.92254
4 17.0 2.49139
5 1.0 3.94047
6 8.0 3.83962
7 1.0 3.83963
8 8.0 4.31457
9 8.0 2.92064
10 1.0 4.98055
11 1.0 3.83745
12 1.0 2.48916
13 2.0 4.31392
14 1.0 2.91968
15 2.0 3.52256
16 1.0 4.57648
17 1.0 4.57587
18 3.0 4.98278
19 2.0 4.57588
20 1.0 3.52257
;
param m :=20;
param l :=20;
end;
